p edge 100 2475
e 1 2
e 1 3
e 1 5
e 1 11
e 1 12
e 1 16
e 1 19
e 1 20
e 1 22
e 1 23
e 1 25
e 1 27
e 1 37
e 1 43
e 1 46
e 1 49
e 1 52
e 1 53
e 1 54
e 1 55
e 1 57
e 1 61
e 1 62
e 1 64
e 1 66
e 1 68
e 1 70
e 1 71
e 1 78
e 1 79
e 1 81
e 1 83
e 1 85
e 1 86
e 1 87
e 1 88
e 1 91
e 1 92
e 1 97
e 1 98
e 1 99
e 1 100
e 2 4
e 2 5
e 2 10
e 2 11
e 2 12
e 2 15
e 2 19
e 2 21
e 2 24
e 2 26
e 2 27
e 2 29
e 2 32
e 2 35
e 2 36
e 2 37
e 2 39
e 2 40
e 2 41
e 2 43
e 2 44
e 2 46
e 2 50
e 2 53
e 2 54
e 2 55
e 2 58
e 2 60
e 2 65
e 2 68
e 2 70
e 2 72
e 2 74
e 2 77
e 2 78
e 2 79
e 2 82
e 2 83
e 2 84
e 2 85
e 2 87
e 2 88
e 2 89
e 2 91
e 2 93
e 2 94
e 2 96
e 3 6
e 3 8
e 3 9
e 3 14
e 3 15
e 3 16
e 3 17
e 3 18
e 3 22
e 3 23
e 3 24
e 3 26
e 3 29
e 3 30
e 3 31
e 3 33
e 3 35
e 3 36
e 3 41
e 3 42
e 3 43
e 3 44
e 3 46
e 3 47
e 3 49
e 3 50
e 3 51
e 3 55
e 3 58
e 3 61
e 3 63
e 3 64
e 3 67
e 3 68
e 3 69
e 3 70
e 3 72
e 3 73
e 3 74
e 3 75
e 3 78
e 3 80
e 3 82
e 3 84
e 3 85
e 3 86
e 3 87
e 3 88
e 3 91
e 3 96
e 3 97
e 3 99
e 4 5
e 4 6
e 4 7
e 4 8
e 4 10
e 4 11
e 4 12
e 4 13
e 4 17
e 4 19
e 4 20
e 4 21
e 4 23
e 4 24
e 4 26
e 4 30
e 4 35
e 4 38
e 4 39
e 4 41
e 4 42
e 4 45
e 4 47
e 4 49
e 4 50
e 4 51
e 4 54
e 4 55
e 4 56
e 4 57
e 4 59
e 4 60
e 4 61
e 4 62
e 4 65
e 4 67
e 4 69
e 4 72
e 4 76
e 4 77
e 4 80
e 4 83
e 4 86
e 4 88
e 4 91
e 4 92
e 4 96
e 4 98
e 4 99
e 4 100
e 5 7
e 5 9
e 5 11
e 5 13
e 5 14
e 5 16
e 5 18
e 5 19
e 5 21
e 5 22
e 5 23
e 5 24
e 5 25
e 5 28
e 5 30
e 5 33
e 5 35
e 5 38
e 5 40
e 5 41
e 5 42
e 5 47
e 5 49
e 5 50
e 5 52
e 5 54
e 5 55
e 5 56
e 5 58
e 5 61
e 5 64
e 5 66
e 5 69
e 5 71
e 5 72
e 5 76
e 5 77
e 5 78
e 5 79
e 5 81
e 5 84
e 5 85
e 5 86
e 5 87
e 5 88
e 5 90
e 5 91
e 5 94
e 5 98
e 6 9
e 6 10
e 6 13
e 6 14
e 6 15
e 6 16
e 6 18
e 6 22
e 6 23
e 6 27
e 6 28
e 6 29
e 6 31
e 6 32
e 6 36
e 6 40
e 6 41
e 6 43
e 6 47
e 6 48
e 6 49
e 6 51
e 6 56
e 6 57
e 6 59
e 6 60
e 6 61
e 6 65
e 6 66
e 6 68
e 6 70
e 6 71
e 6 73
e 6 74
e 6 76
e 6 78
e 6 79
e 6 80
e 6 83
e 6 84
e 6 86
e 6 88
e 6 89
e 6 92
e 6 95
e 6 96
e 6 98
e 6 99
e 6 100
e 7 8
e 7 12
e 7 15
e 7 16
e 7 18
e 7 19
e 7 20
e 7 24
e 7 26
e 7 30
e 7 31
e 7 32
e 7 35
e 7 37
e 7 41
e 7 42
e 7 44
e 7 45
e 7 46
e 7 47
e 7 48
e 7 51
e 7 52
e 7 53
e 7 56
e 7 57
e 7 59
e 7 61
e 7 62
e 7 66
e 7 68
e 7 72
e 7 73
e 7 74
e 7 75
e 7 77
e 7 78
e 7 79
e 7 81
e 7 84
e 7 86
e 7 88
e 7 89
e 7 91
e 7 93
e 7 96
e 7 98
e 8 9
e 8 12
e 8 13
e 8 14
e 8 15
e 8 21
e 8 22
e 8 23
e 8 25
e 8 26
e 8 28
e 8 32
e 8 33
e 8 34
e 8 36
e 8 37
e 8 39
e 8 42
e 8 44
e 8 46
e 8 47
e 8 48
e 8 49
e 8 52
e 8 54
e 8 55
e 8 56
e 8 57
e 8 58
e 8 61
e 8 62
e 8 64
e 8 70
e 8 71
e 8 75
e 8 76
e 8 79
e 8 80
e 8 83
e 8 84
e 8 86
e 8 87
e 8 90
e 8 92
e 8 93
e 8 94
e 8 95
e 8 98
e 9 11
e 9 20
e 9 21
e 9 23
e 9 29
e 9 30
e 9 34
e 9 39
e 9 44
e 9 48
e 9 49
e 9 50
e 9 57
e 9 58
e 9 60
e 9 61
e 9 62
e 9 67
e 9 69
e 9 70
e 9 71
e 9 73
e 9 74
e 9 76
e 9 79
e 9 80
e 9 81
e 9 86
e 9 88
e 9 89
e 9 90
e 9 95
e 9 96
e 9 98
e 10 11
e 10 13
e 10 14
e 10 18
e 10 20
e 10 21
e 10 22
e 10 23
e 10 24
e 10 28
e 10 29
e 10 32
e 10 33
e 10 34
e 10 36
e 10 37
e 10 38
e 10 40
e 10 43
e 10 44
e 10 45
e 10 46
e 10 47
e 10 52
e 10 56
e 10 57
e 10 58
e 10 62
e 10 63
e 10 64
e 10 65
e 10 66
e 10 71
e 10 74
e 10 76
e 10 77
e 10 78
e 10 79
e 10 81
e 10 82
e 10 87
e 10 89
e 10 90
e 10 92
e 10 94
e 10 95
e 10 96
e 10 99
e 11 13
e 11 14
e 11 18
e 11 19
e 11 20
e 11 21
e 11 22
e 11 23
e 11 25
e 11 27
e 11 30
e 11 31
e 11 35
e 11 37
e 11 38
e 11 39
e 11 40
e 11 41
e 11 46
e 11 49
e 11 50
e 11 52
e 11 53
e 11 58
e 11 59
e 11 62
e 11 65
e 11 66
e 11 67
e 11 69
e 11 70
e 11 71
e 11 72
e 11 73
e 11 75
e 11 76
e 11 79
e 11 80
e 11 82
e 11 83
e 11 84
e 11 86
e 11 88
e 11 91
e 11 92
e 11 93
e 11 94
e 12 13
e 12 14
e 12 16
e 12 18
e 12 21
e 12 22
e 12 23
e 12 27
e 12 29
e 12 31
e 12 32
e 12 33
e 12 34
e 12 37
e 12 42
e 12 44
e 12 45
e 12 48
e 12 49
e 12 52
e 12 54
e 12 56
e 12 59
e 12 60
e 12 64
e 12 66
e 12 67
e 12 68
e 12 69
e 12 71
e 12 74
e 12 78
e 12 79
e 12 80
e 12 81
e 12 82
e 12 83
e 12 84
e 12 85
e 12 91
e 12 92
e 12 94
e 12 99
e 12 100
e 13 14
e 13 16
e 13 26
e 13 27
e 13 28
e 13 30
e 13 32
e 13 34
e 13 36
e 13 37
e 13 40
e 13 42
e 13 44
e 13 45
e 13 47
e 13 51
e 13 52
e 13 61
e 13 62
e 13 66
e 13 67
e 13 71
e 13 72
e 13 73
e 13 75
e 13 76
e 13 77
e 13 79
e 13 80
e 13 81
e 13 83
e 13 84
e 13 85
e 13 87
e 13 88
e 13 89
e 13 90
e 13 92
e 13 97
e 13 98
e 14 15
e 14 16
e 14 17
e 14 18
e 14 22
e 14 25
e 14 26
e 14 28
e 14 30
e 14 31
e 14 33
e 14 36
e 14 41
e 14 42
e 14 43
e 14 44
e 14 48
e 14 50
e 14 51
e 14 53
e 14 55
e 14 56
e 14 58
e 14 61
e 14 62
e 14 64
e 14 68
e 14 70
e 14 71
e 14 73
e 14 74
e 14 77
e 14 78
e 14 80
e 14 81
e 14 84
e 14 85
e 14 86
e 14 88
e 14 89
e 14 93
e 14 95
e 14 96
e 14 97
e 14 98
e 15 23
e 15 24
e 15 31
e 15 35
e 15 39
e 15 40
e 15 41
e 15 43
e 15 46
e 15 47
e 15 48
e 15 49
e 15 51
e 15 53
e 15 54
e 15 56
e 15 57
e 15 58
e 15 62
e 15 63
e 15 65
e 15 68
e 15 69
e 15 74
e 15 77
e 15 81
e 15 83
e 15 85
e 15 86
e 15 88
e 15 89
e 15 90
e 15 97
e 15 98
e 15 100
e 16 17
e 16 19
e 16 20
e 16 23
e 16 25
e 16 26
e 16 29
e 16 32
e 16 37
e 16 38
e 16 39
e 16 41
e 16 42
e 16 44
e 16 45
e 16 46
e 16 48
e 16 49
e 16 50
e 16 51
e 16 52
e 16 53
e 16 56
e 16 58
e 16 60
e 16 61
e 16 68
e 16 70
e 16 71
e 16 77
e 16 78
e 16 79
e 16 83
e 16 86
e 16 87
e 16 90
e 16 92
e 16 94
e 16 99
e 17 18
e 17 19
e 17 20
e 17 21
e 17 22
e 17 23
e 17 26
e 17 28
e 17 29
e 17 30
e 17 34
e 17 38
e 17 42
e 17 43
e 17 44
e 17 45
e 17 50
e 17 51
e 17 56
e 17 59
e 17 60
e 17 62
e 17 65
e 17 67
e 17 68
e 17 69
e 17 72
e 17 73
e 17 80
e 17 85
e 17 86
e 17 87
e 17 88
e 17 89
e 17 91
e 17 92
e 17 95
e 17 98
e 17 100
e 18 19
e 18 20
e 18 23
e 18 24
e 18 25
e 18 27
e 18 31
e 18 32
e 18 35
e 18 36
e 18 38
e 18 41
e 18 43
e 18 45
e 18 49
e 18 50
e 18 54
e 18 55
e 18 56
e 18 57
e 18 60
e 18 63
e 18 65
e 18 66
e 18 68
e 18 69
e 18 70
e 18 72
e 18 75
e 18 77
e 18 83
e 18 84
e 18 88
e 18 89
e 18 92
e 18 93
e 18 96
e 18 99
e 18 100
e 19 21
e 19 24
e 19 25
e 19 26
e 19 27
e 19 28
e 19 29
e 19 30
e 19 31
e 19 32
e 19 35
e 19 39
e 19 42
e 19 43
e 19 44
e 19 47
e 19 49
e 19 51
e 19 52
e 19 55
e 19 57
e 19 58
e 19 59
e 19 60
e 19 61
e 19 62
e 19 63
e 19 71
e 19 72
e 19 75
e 19 76
e 19 79
e 19 80
e 19 82
e 19 85
e 19 88
e 19 89
e 19 91
e 19 92
e 19 97
e 19 98
e 20 23
e 20 24
e 20 28
e 20 32
e 20 35
e 20 36
e 20 40
e 20 42
e 20 44
e 20 45
e 20 46
e 20 52
e 20 53
e 20 55
e 20 57
e 20 62
e 20 63
e 20 64
e 20 65
e 20 67
e 20 68
e 20 70
e 20 73
e 20 74
e 20 75
e 20 77
e 20 78
e 20 81
e 20 84
e 20 89
e 20 90
e 20 91
e 20 92
e 20 95
e 20 99
e 21 22
e 21 24
e 21 25
e 21 27
e 21 31
e 21 32
e 21 38
e 21 39
e 21 44
e 21 46
e 21 49
e 21 51
e 21 52
e 21 53
e 21 54
e 21 55
e 21 56
e 21 58
e 21 59
e 21 61
e 21 62
e 21 64
e 21 65
e 21 66
e 21 67
e 21 73
e 21 78
e 21 81
e 21 83
e 21 84
e 21 86
e 21 87
e 21 88
e 21 89
e 21 90
e 21 91
e 21 92
e 21 93
e 21 94
e 21 96
e 21 97
e 21 98
e 22 24
e 22 25
e 22 26
e 22 33
e 22 34
e 22 36
e 22 37
e 22 39
e 22 40
e 22 41
e 22 42
e 22 43
e 22 47
e 22 48
e 22 52
e 22 53
e 22 56
e 22 58
e 22 59
e 22 61
e 22 63
e 22 68
e 22 70
e 22 71
e 22 72
e 22 73
e 22 78
e 22 80
e 22 84
e 22 85
e 22 88
e 22 89
e 22 94
e 22 95
e 22 96
e 22 100
e 23 28
e 23 30
e 23 31
e 23 32
e 23 34
e 23 38
e 23 39
e 23 40
e 23 43
e 23 46
e 23 47
e 23 50
e 23 52
e 23 55
e 23 56
e 23 57
e 23 59
e 23 60
e 23 64
e 23 65
e 23 66
e 23 67
e 23 68
e 23 69
e 23 71
e 23 72
e 23 74
e 23 75
e 23 77
e 23 79
e 23 81
e 23 82
e 23 85
e 23 86
e 23 87
e 23 90
e 23 92
e 23 93
e 23 95
e 23 96
e 23 97
e 23 98
e 23 100
e 24 25
e 24 28
e 24 29
e 24 31
e 24 34
e 24 36
e 24 39
e 24 40
e 24 43
e 24 46
e 24 47
e 24 48
e 24 53
e 24 56
e 24 58
e 24 59
e 24 65
e 24 70
e 24 71
e 24 72
e 24 74
e 24 75
e 24 76
e 24 79
e 24 80
e 24 81
e 24 82
e 24 83
e 24 84
e 24 85
e 24 86
e 24 89
e 24 93
e 24 95
e 24 99
e 24 100
e 25 27
e 25 29
e 25 30
e 25 33
e 25 35
e 25 38
e 25 42
e 25 47
e 25 49
e 25 51
e 25 52
e 25 54
e 25 55
e 25 57
e 25 60
e 25 61
e 25 62
e 25 63
e 25 64
e 25 65
e 25 66
e 25 67
e 25 71
e 25 72
e 25 74
e 25 75
e 25 76
e 25 77
e 25 81
e 25 82
e 25 85
e 25 87
e 25 88
e 25 90
e 25 91
e 25 92
e 25 93
e 25 95
e 25 96
e 25 98
e 25 99
e 26 28
e 26 29
e 26 30
e 26 31
e 26 34
e 26 38
e 26 39
e 26 41
e 26 44
e 26 45
e 26 46
e 26 47
e 26 48
e 26 51
e 26 55
e 26 56
e 26 59
e 26 60
e 26 61
e 26 62
e 26 64
e 26 66
e 26 70
e 26 71
e 26 72
e 26 74
e 26 77
e 26 78
e 26 81
e 26 84
e 26 86
e 26 87
e 26 88
e 26 90
e 26 92
e 26 94
e 26 96
e 27 29
e 27 30
e 27 31
e 27 33
e 27 34
e 27 36
e 27 37
e 27 38
e 27 39
e 27 42
e 27 45
e 27 46
e 27 47
e 27 51
e 27 52
e 27 54
e 27 58
e 27 61
e 27 63
e 27 66
e 27 67
e 27 68
e 27 69
e 27 70
e 27 71
e 27 73
e 27 74
e 27 80
e 27 84
e 27 85
e 27 88
e 27 89
e 27 91
e 27 94
e 27 97
e 27 100
e 28 30
e 28 31
e 28 32
e 28 33
e 28 34
e 28 35
e 28 37
e 28 40
e 28 43
e 28 46
e 28 48
e 28 49
e 28 50
e 28 51
e 28 52
e 28 54
e 28 56
e 28 57
e 28 59
e 28 62
e 28 63
e 28 64
e 28 65
e 28 67
e 28 68
e 28 69
e 28 70
e 28 72
e 28 73
e 28 75
e 28 76
e 28 79
e 28 80
e 28 81
e 28 84
e 28 85
e 28 88
e 28 89
e 28 91
e 28 92
e 28 93
e 28 95
e 28 97
e 28 98
e 28 99
e 28 100
e 29 31
e 29 33
e 29 37
e 29 40
e 29 42
e 29 43
e 29 47
e 29 49
e 29 50
e 29 51
e 29 56
e 29 57
e 29 58
e 29 60
e 29 63
e 29 64
e 29 67
e 29 68
e 29 69
e 29 71
e 29 72
e 29 73
e 29 74
e 29 75
e 29 76
e 29 79
e 29 82
e 29 84
e 29 87
e 29 89
e 29 90
e 29 91
e 29 93
e 29 94
e 29 95
e 30 32
e 30 34
e 30 36
e 30 40
e 30 41
e 30 44
e 30 47
e 30 48
e 30 49
e 30 51
e 30 54
e 30 56
e 30 57
e 30 61
e 30 62
e 30 66
e 30 68
e 30 69
e 30 71
e 30 74
e 30 77
e 30 78
e 30 81
e 30 83
e 30 86
e 30 88
e 30 91
e 30 92
e 30 93
e 30 94
e 30 95
e 30 96
e 30 99
e 31 32
e 31 34
e 31 35
e 31 37
e 31 38
e 31 41
e 31 42
e 31 43
e 31 44
e 31 46
e 31 47
e 31 48
e 31 50
e 31 51
e 31 52
e 31 53
e 31 55
e 31 58
e 31 59
e 31 61
e 31 65
e 31 66
e 31 74
e 31 75
e 31 76
e 31 77
e 31 79
e 31 80
e 31 86
e 31 87
e 31 88
e 31 90
e 31 92
e 31 93
e 31 94
e 31 96
e 31 97
e 31 99
e 32 36
e 32 38
e 32 39
e 32 40
e 32 44
e 32 46
e 32 48
e 32 49
e 32 50
e 32 54
e 32 56
e 32 60
e 32 63
e 32 65
e 32 66
e 32 67
e 32 70
e 32 73
e 32 76
e 32 77
e 32 79
e 32 81
e 32 83
e 32 85
e 32 86
e 32 87
e 32 88
e 32 91
e 32 93
e 32 95
e 32 96
e 32 99
e 32 100
e 33 36
e 33 38
e 33 41
e 33 43
e 33 44
e 33 46
e 33 48
e 33 49
e 33 53
e 33 55
e 33 57
e 33 58
e 33 59
e 33 61
e 33 64
e 33 67
e 33 68
e 33 69
e 33 71
e 33 73
e 33 76
e 33 77
e 33 78
e 33 84
e 33 86
e 33 88
e 33 89
e 33 92
e 33 97
e 33 99
e 33 100
e 34 38
e 34 42
e 34 43
e 34 46
e 34 47
e 34 48
e 34 50
e 34 51
e 34 57
e 34 58
e 34 60
e 34 62
e 34 63
e 34 65
e 34 70
e 34 72
e 34 74
e 34 75
e 34 76
e 34 77
e 34 79
e 34 81
e 34 82
e 34 83
e 34 84
e 34 85
e 34 87
e 34 88
e 34 90
e 34 91
e 34 92
e 34 93
e 34 94
e 34 95
e 34 96
e 34 97
e 34 98
e 34 100
e 35 38
e 35 39
e 35 42
e 35 43
e 35 44
e 35 45
e 35 46
e 35 47
e 35 48
e 35 50
e 35 52
e 35 55
e 35 56
e 35 58
e 35 59
e 35 63
e 35 64
e 35 67
e 35 71
e 35 74
e 35 75
e 35 76
e 35 78
e 35 79
e 35 81
e 35 82
e 35 83
e 35 85
e 35 87
e 35 88
e 35 90
e 35 92
e 35 93
e 35 95
e 35 97
e 35 98
e 35 99
e 35 100
e 36 40
e 36 41
e 36 42
e 36 43
e 36 46
e 36 47
e 36 50
e 36 52
e 36 58
e 36 62
e 36 64
e 36 67
e 36 70
e 36 71
e 36 72
e 36 73
e 36 76
e 36 77
e 36 80
e 36 82
e 36 84
e 36 85
e 36 88
e 36 89
e 36 90
e 36 96
e 36 97
e 36 98
e 36 100
e 37 39
e 37 40
e 37 42
e 37 43
e 37 44
e 37 45
e 37 47
e 37 51
e 37 52
e 37 54
e 37 57
e 37 62
e 37 65
e 37 67
e 37 68
e 37 69
e 37 71
e 37 73
e 37 75
e 37 78
e 37 81
e 37 82
e 37 83
e 37 84
e 37 85
e 37 88
e 37 90
e 37 91
e 37 93
e 37 94
e 37 97
e 37 98
e 38 41
e 38 42
e 38 44
e 38 45
e 38 46
e 38 47
e 38 48
e 38 53
e 38 57
e 38 59
e 38 63
e 38 64
e 38 65
e 38 66
e 38 70
e 38 72
e 38 73
e 38 75
e 38 76
e 38 77
e 38 78
e 38 86
e 38 88
e 38 90
e 38 91
e 38 95
e 38 99
e 38 100
e 39 41
e 39 42
e 39 43
e 39 49
e 39 50
e 39 51
e 39 53
e 39 58
e 39 59
e 39 61
e 39 64
e 39 66
e 39 67
e 39 68
e 39 70
e 39 72
e 39 74
e 39 76
e 39 77
e 39 79
e 39 81
e 39 83
e 39 84
e 39 86
e 39 87
e 39 90
e 39 91
e 39 93
e 39 95
e 39 96
e 39 99
e 39 100
e 40 41
e 40 43
e 40 44
e 40 45
e 40 46
e 40 47
e 40 48
e 40 50
e 40 52
e 40 53
e 40 54
e 40 56
e 40 57
e 40 60
e 40 62
e 40 63
e 40 64
e 40 66
e 40 67
e 40 68
e 40 69
e 40 70
e 40 72
e 40 73
e 40 75
e 40 76
e 40 79
e 40 82
e 40 86
e 40 88
e 40 91
e 40 92
e 40 93
e 40 96
e 40 97
e 40 98
e 41 43
e 41 44
e 41 51
e 41 52
e 41 55
e 41 56
e 41 57
e 41 59
e 41 60
e 41 61
e 41 62
e 41 63
e 41 64
e 41 68
e 41 71
e 41 72
e 41 73
e 41 76
e 41 83
e 41 84
e 41 86
e 41 87
e 41 88
e 41 89
e 41 97
e 42 45
e 42 46
e 42 47
e 42 48
e 42 51
e 42 52
e 42 54
e 42 59
e 42 61
e 42 62
e 42 64
e 42 66
e 42 70
e 42 73
e 42 74
e 42 76
e 42 81
e 42 82
e 42 83
e 42 86
e 42 87
e 42 90
e 42 94
e 42 95
e 42 97
e 42 98
e 42 99
e 42 100
e 43 44
e 43 45
e 43 48
e 43 54
e 43 55
e 43 56
e 43 57
e 43 58
e 43 59
e 43 65
e 43 67
e 43 68
e 43 71
e 43 72
e 43 76
e 43 77
e 43 80
e 43 81
e 43 82
e 43 83
e 43 86
e 43 87
e 43 88
e 43 89
e 43 90
e 43 93
e 43 96
e 43 97
e 43 99
e 43 100
e 44 45
e 44 47
e 44 49
e 44 50
e 44 52
e 44 57
e 44 60
e 44 61
e 44 62
e 44 63
e 44 64
e 44 68
e 44 75
e 44 77
e 44 82
e 44 84
e 44 85
e 44 87
e 44 90
e 44 92
e 44 94
e 44 98
e 44 100
e 45 46
e 45 50
e 45 51
e 45 52
e 45 57
e 45 58
e 45 62
e 45 65
e 45 68
e 45 69
e 45 71
e 45 72
e 45 73
e 45 74
e 45 75
e 45 81
e 45 84
e 45 85
e 45 86
e 45 88
e 45 89
e 45 90
e 45 91
e 45 92
e 45 93
e 45 94
e 45 96
e 45 97
e 46 49
e 46 50
e 46 51
e 46 56
e 46 58
e 46 59
e 46 60
e 46 61
e 46 62
e 46 63
e 46 64
e 46 67
e 46 71
e 46 73
e 46 76
e 46 78
e 46 87
e 46 91
e 46 92
e 46 93
e 46 94
e 46 95
e 46 97
e 46 98
e 46 99
e 47 48
e 47 50
e 47 52
e 47 53
e 47 55
e 47 58
e 47 60
e 47 61
e 47 63
e 47 64
e 47 66
e 47 67
e 47 69
e 47 71
e 47 72
e 47 73
e 47 74
e 47 75
e 47 76
e 47 79
e 47 80
e 47 81
e 47 83
e 47 84
e 47 86
e 47 91
e 47 92
e 47 94
e 47 95
e 47 99
e 48 50
e 48 54
e 48 55
e 48 59
e 48 64
e 48 66
e 48 67
e 48 70
e 48 74
e 48 75
e 48 78
e 48 79
e 48 81
e 48 87
e 48 90
e 48 92
e 48 94
e 48 99
e 48 100
e 49 50
e 49 51
e 49 52
e 49 53
e 49 54
e 49 55
e 49 56
e 49 57
e 49 60
e 49 64
e 49 67
e 49 70
e 49 72
e 49 77
e 49 78
e 49 79
e 49 82
e 49 84
e 49 86
e 49 89
e 49 90
e 49 91
e 49 95
e 49 96
e 49 97
e 49 98
e 50 55
e 50 56
e 50 57
e 50 58
e 50 63
e 50 65
e 50 66
e 50 67
e 50 70
e 50 73
e 50 74
e 50 75
e 50 76
e 50 79
e 50 80
e 50 81
e 50 82
e 50 83
e 50 84
e 50 90
e 50 91
e 50 92
e 50 93
e 50 94
e 50 100
e 51 52
e 51 53
e 51 54
e 51 55
e 51 56
e 51 57
e 51 60
e 51 61
e 51 62
e 51 63
e 51 66
e 51 68
e 51 70
e 51 72
e 51 74
e 51 78
e 51 79
e 51 81
e 51 83
e 51 84
e 51 85
e 51 89
e 51 91
e 51 92
e 51 96
e 51 99
e 52 54
e 52 55
e 52 56
e 52 57
e 52 60
e 52 63
e 52 65
e 52 66
e 52 71
e 52 73
e 52 74
e 52 75
e 52 77
e 52 78
e 52 80
e 52 81
e 52 84
e 52 85
e 52 86
e 52 87
e 52 88
e 52 90
e 52 91
e 52 93
e 52 96
e 52 97
e 52 100
e 53 56
e 53 60
e 53 61
e 53 62
e 53 63
e 53 65
e 53 67
e 53 68
e 53 70
e 53 75
e 53 76
e 53 77
e 53 78
e 53 80
e 53 82
e 53 84
e 53 87
e 53 88
e 53 90
e 53 91
e 53 92
e 53 96
e 53 97
e 54 56
e 54 57
e 54 58
e 54 59
e 54 60
e 54 62
e 54 65
e 54 66
e 54 68
e 54 70
e 54 74
e 54 77
e 54 78
e 54 80
e 54 81
e 54 84
e 54 86
e 54 88
e 54 93
e 54 94
e 54 95
e 54 96
e 54 99
e 54 100
e 55 56
e 55 59
e 55 63
e 55 65
e 55 67
e 55 69
e 55 71
e 55 72
e 55 76
e 55 79
e 55 80
e 55 83
e 55 84
e 55 85
e 55 87
e 55 90
e 55 93
e 55 94
e 55 96
e 55 98
e 55 100
e 56 58
e 56 60
e 56 62
e 56 63
e 56 66
e 56 68
e 56 69
e 56 71
e 56 81
e 56 82
e 56 83
e 56 85
e 56 87
e 56 91
e 56 92
e 56 93
e 56 94
e 56 95
e 56 98
e 56 100
e 57 58
e 57 59
e 57 63
e 57 64
e 57 66
e 57 70
e 57 72
e 57 74
e 57 76
e 57 77
e 57 78
e 57 80
e 57 81
e 57 85
e 57 86
e 57 87
e 57 89
e 57 90
e 57 91
e 57 92
e 57 100
e 58 61
e 58 63
e 58 64
e 58 66
e 58 67
e 58 68
e 58 70
e 58 74
e 58 75
e 58 76
e 58 77
e 58 78
e 58 82
e 58 84
e 58 87
e 58 89
e 58 91
e 58 93
e 58 95
e 58 96
e 58 97
e 58 98
e 58 100
e 59 60
e 59 62
e 59 63
e 59 67
e 59 69
e 59 71
e 59 77
e 59 78
e 59 85
e 59 88
e 59 89
e 59 94
e 59 97
e 59 99
e 59 100
e 60 61
e 60 64
e 60 66
e 60 67
e 60 69
e 60 70
e 60 71
e 60 72
e 60 73
e 60 77
e 60 80
e 60 81
e 60 82
e 60 84
e 60 85
e 60 88
e 60 91
e 60 95
e 60 96
e 60 97
e 60 98
e 61 66
e 61 70
e 61 73
e 61 75
e 61 77
e 61 78
e 61 80
e 61 87
e 61 88
e 61 90
e 61 91
e 61 92
e 61 94
e 61 95
e 61 96
e 61 98
e 62 65
e 62 66
e 62 70
e 62 71
e 62 72
e 62 74
e 62 75
e 62 76
e 62 77
e 62 80
e 62 86
e 62 87
e 62 88
e 62 90
e 62 92
e 62 95
e 62 96
e 62 97
e 62 98
e 62 99
e 62 100
e 63 64
e 63 65
e 63 66
e 63 67
e 63 71
e 63 72
e 63 73
e 63 74
e 63 75
e 63 78
e 63 79
e 63 80
e 63 86
e 63 87
e 63 88
e 63 90
e 63 91
e 63 92
e 63 93
e 63 94
e 63 97
e 63 99
e 64 65
e 64 66
e 64 67
e 64 71
e 64 72
e 64 73
e 64 74
e 64 75
e 64 76
e 64 81
e 64 82
e 64 83
e 64 84
e 64 87
e 64 89
e 64 90
e 64 92
e 64 97
e 64 98
e 65 66
e 65 67
e 65 68
e 65 69
e 65 70
e 65 72
e 65 75
e 65 76
e 65 79
e 65 80
e 65 83
e 65 84
e 65 86
e 65 87
e 65 88
e 65 92
e 65 93
e 65 100
e 66 68
e 66 70
e 66 75
e 66 80
e 66 81
e 66 84
e 66 85
e 66 86
e 66 88
e 66 93
e 66 95
e 66 97
e 66 99
e 66 100
e 67 69
e 67 70
e 67 71
e 67 72
e 67 73
e 67 74
e 67 76
e 67 78
e 67 80
e 67 82
e 67 83
e 67 84
e 67 85
e 67 88
e 67 90
e 67 92
e 67 93
e 67 94
e 67 99
e 68 71
e 68 73
e 68 74
e 68 77
e 68 78
e 68 81
e 68 82
e 68 84
e 68 85
e 68 86
e 68 87
e 68 90
e 68 92
e 68 97
e 69 70
e 69 73
e 69 76
e 69 82
e 69 85
e 69 89
e 69 90
e 69 93
e 69 94
e 69 95
e 69 96
e 69 99
e 69 100
e 70 72
e 70 75
e 70 76
e 70 77
e 70 78
e 70 83
e 70 84
e 70 86
e 70 94
e 70 96
e 70 97
e 70 99
e 70 100
e 71 72
e 71 73
e 71 74
e 71 76
e 71 78
e 71 79
e 71 80
e 71 84
e 71 85
e 71 87
e 71 88
e 71 89
e 71 90
e 71 92
e 72 73
e 72 76
e 72 77
e 72 79
e 72 80
e 72 81
e 72 82
e 72 83
e 72 84
e 72 85
e 72 88
e 72 89
e 72 90
e 72 91
e 72 92
e 72 93
e 72 95
e 72 97
e 72 99
e 73 75
e 73 77
e 73 78
e 73 79
e 73 80
e 73 84
e 73 85
e 73 88
e 73 90
e 73 93
e 73 94
e 73 95
e 73 97
e 73 98
e 73 99
e 73 100
e 74 75
e 74 79
e 74 82
e 74 84
e 74 85
e 74 86
e 74 89
e 74 92
e 74 94
e 74 95
e 74 96
e 74 97
e 74 98
e 74 100
e 75 79
e 75 80
e 75 81
e 75 85
e 75 86
e 75 87
e 75 89
e 75 91
e 75 93
e 75 94
e 75 95
e 75 96
e 75 100
e 76 77
e 76 79
e 76 81
e 76 82
e 76 83
e 76 85
e 76 86
e 76 87
e 76 91
e 76 92
e 76 93
e 76 94
e 76 95
e 76 96
e 76 97
e 76 98
e 76 99
e 76 100
e 77 78
e 77 80
e 77 82
e 77 89
e 77 92
e 77 94
e 77 99
e 78 80
e 78 83
e 78 87
e 78 91
e 78 92
e 78 93
e 78 96
e 78 97
e 78 100
e 79 81
e 79 85
e 79 89
e 79 90
e 79 91
e 79 92
e 79 93
e 79 94
e 79 96
e 79 98
e 80 81
e 80 82
e 80 84
e 80 86
e 80 87
e 80 89
e 80 90
e 80 94
e 80 96
e 80 99
e 80 100
e 81 82
e 81 84
e 81 90
e 81 91
e 81 92
e 81 94
e 81 96
e 81 97
e 81 99
e 81 100
e 82 83
e 82 86
e 82 87
e 82 89
e 82 91
e 82 92
e 82 93
e 82 94
e 82 95
e 82 96
e 82 98
e 82 99
e 82 100
e 83 84
e 83 85
e 83 86
e 83 89
e 83 92
e 83 93
e 83 94
e 83 96
e 83 98
e 83 99
e 84 85
e 84 87
e 84 89
e 84 91
e 84 93
e 84 94
e 84 96
e 84 97
e 84 99
e 84 100
e 85 86
e 85 88
e 85 89
e 85 90
e 85 92
e 85 94
e 85 97
e 86 87
e 86 88
e 86 89
e 86 92
e 86 93
e 86 94
e 86 96
e 86 98
e 86 99
e 86 100
e 87 89
e 87 93
e 87 94
e 87 96
e 87 98
e 87 100
e 88 91
e 88 92
e 88 93
e 88 100
e 89 90
e 89 92
e 89 93
e 89 94
e 89 95
e 89 96
e 89 98
e 89 100
e 90 93
e 90 94
e 90 98
e 91 92
e 91 94
e 91 96
e 91 97
e 91 98
e 92 93
e 92 95
e 92 98
e 92 99
e 92 100
e 93 94
e 93 97
e 93 98
e 93 99
e 93 100
e 94 95
e 94 99
e 94 100
e 95 96
e 96 99
e 97 98
e 97 100
e 98 99
e 99 100
